p cnf 112 156
1 2 3 4 16 0
1 2 3 -4 5 0
1 2 -3 4 6 0
1 2 -3 -4 8 0
1 -2 3 4 7 0
1 -2 3 -4 9 0
1 -2 -3 4 10 0
1 -2 -3 -4 11 0
-1 2 3 4 12 0
-1 2 3 -4 13 0
-1 2 -3 4 14 0
-1 2 -3 -4 15 0
17 18 19 20 1 2 3 4 21 0
17 18 19 20 1 2 3 -4 21 0
17 18 19 20 1 2 -3 4 21 0
17 18 19 20 1 2 -3 -4 21 0
17 18 19 20 1 -2 3 4 43 0
17 18 19 20 1 -2 3 -4 78 0
17 18 19 20 1 -2 -3 4 60 0
17 18 19 20 1 -2 -3 -4 86 0
17 18 19 20 -1 2 3 4 21 0
17 18 19 20 -1 2 3 -4 30 0
17 18 19 20 -1 2 -3 4 21 0
17 18 19 20 -1 2 -3 -4 21 0
17 18 19 -20 1 2 3 4 21 0
17 18 19 -20 1 2 3 -4 21 0
17 18 19 -20 1 2 -3 4 21 0
17 18 19 -20 1 2 -3 -4 64 0
17 18 19 -20 1 -2 3 4 73 0
17 18 19 -20 1 -2 3 -4 48 0
17 18 19 -20 1 -2 -3 4 111 0
17 18 19 -20 1 -2 -3 -4 86 0
17 18 19 -20 -1 2 3 4 41 0
17 18 19 -20 -1 2 3 -4 36 0
17 18 19 -20 -1 2 -3 4 34 0
17 18 19 -20 -1 2 -3 -4 21 0
17 18 -19 20 1 2 3 4 21 0
17 18 -19 20 1 2 3 -4 21 0
17 18 -19 20 1 2 -3 4 21 0
17 18 -19 20 1 2 -3 -4 21 0
17 18 -19 20 1 -2 3 4 43 0
17 18 -19 20 1 -2 3 -4 46 0
17 18 -19 20 1 -2 -3 4 98 0
17 18 -19 20 1 -2 -3 -4 110 0
17 18 -19 20 -1 2 3 4 44 0
17 18 -19 20 -1 2 3 -4 26 0
17 18 -19 20 -1 2 -3 4 75 0
17 18 -19 20 -1 2 -3 -4 21 0
17 18 -19 -20 1 2 3 4 21 0
17 18 -19 -20 1 2 3 -4 21 0
17 18 -19 -20 1 2 -3 4 21 0
17 18 -19 -20 1 2 -3 -4 21 0
17 18 -19 -20 1 -2 3 4 61 0
17 18 -19 -20 1 -2 3 -4 77 0
17 18 -19 -20 1 -2 -3 4 42 0
17 18 -19 -20 1 -2 -3 -4 110 0
17 18 -19 -20 -1 2 3 4 63 0
17 18 -19 -20 -1 2 3 -4 35 0
17 18 -19 -20 -1 2 -3 4 58 0
17 18 -19 -20 -1 2 -3 -4 21 0
17 -18 19 20 1 2 3 4 21 0
17 -18 19 20 1 2 3 -4 21 0
17 -18 19 20 1 2 -3 4 99 0
17 -18 19 20 1 2 -3 -4 71 0
17 -18 19 20 1 -2 3 4 101 0
17 -18 19 20 1 -2 3 -4 79 0
17 -18 19 20 1 -2 -3 4 42 0
17 -18 19 20 1 -2 -3 -4 65 0
17 -18 19 20 -1 2 3 4 87 0
17 -18 19 20 -1 2 3 -4 31 0
17 -18 19 20 -1 2 -3 4 92 0
17 -18 19 20 -1 2 -3 -4 21 0
17 -18 19 -20 1 2 3 4 21 0
17 -18 19 -20 1 2 3 -4 21 0
17 -18 19 -20 1 2 -3 4 66 0
17 -18 19 -20 1 2 -3 -4 76 0
17 -18 19 -20 1 -2 3 4 100 0
17 -18 19 -20 1 -2 3 -4 80 0
17 -18 19 -20 1 -2 -3 4 32 0
17 -18 19 -20 1 -2 -3 -4 97 0
17 -18 19 -20 -1 2 3 4 63 0
17 -18 19 -20 -1 2 3 -4 33 0
17 -18 19 -20 -1 2 -3 4 74 0
17 -18 19 -20 -1 2 -3 -4 21 0
17 -18 -19 20 1 2 3 4 49 0
17 -18 -19 20 1 2 3 -4 88 0
17 -18 -19 20 1 2 -3 4 22 0
17 -18 -19 20 1 2 -3 -4 70 0
17 -18 -19 20 1 -2 3 4 90 0
17 -18 -19 20 1 -2 3 -4 27 0
17 -18 -19 20 1 -2 -3 4 68 0
17 -18 -19 20 1 -2 -3 -4 23 0
17 -18 -19 20 -1 2 3 4 102 0
17 -18 -19 20 -1 2 3 -4 45 0
17 -18 -19 20 -1 2 -3 4 74 0
17 -18 -19 20 -1 2 -3 -4 21 0
17 -18 -19 -20 1 2 3 4 69 0
17 -18 -19 -20 1 2 3 -4 25 0
17 -18 -19 -20 1 2 -3 4 56 0
17 -18 -19 -20 1 2 -3 -4 53 0
17 -18 -19 -20 1 -2 3 4 91 0
17 -18 -19 -20 1 -2 3 -4 24 0
17 -18 -19 -20 1 -2 -3 4 67 0
17 -18 -19 -20 1 -2 -3 -4 57 0
17 -18 -19 -20 -1 2 3 4 50 0
17 -18 -19 -20 -1 2 3 -4 38 0
17 -18 -19 -20 -1 2 -3 4 51 0
17 -18 -19 -20 -1 2 -3 -4 108 0
-17 18 19 20 1 2 3 4 109 0
-17 18 19 20 1 2 3 -4 55 0
-17 18 19 20 1 2 -3 4 103 0
-17 18 19 20 1 2 -3 -4 89 0
-17 18 19 20 1 -2 3 4 104 0
-17 18 19 20 1 -2 3 -4 105 0
-17 18 19 20 1 -2 -3 4 81 0
-17 18 19 20 1 -2 -3 -4 93 0
-17 18 19 20 -1 2 3 4 52 0
-17 18 19 20 -1 2 3 -4 95 0
-17 18 19 20 -1 2 -3 4 82 0
-17 18 19 20 -1 2 -3 -4 85 0
-17 18 19 -20 1 2 3 4 21 0
-17 18 19 -20 1 2 3 -4 54 0
-17 18 19 -20 1 2 -3 4 94 0
-17 18 19 -20 1 2 -3 -4 39 0
-17 18 19 -20 1 -2 3 4 101 0
-17 18 19 -20 1 -2 3 -4 37 0
-17 18 19 -20 1 -2 -3 4 107 0
-17 18 19 -20 1 -2 -3 -4 62 0
-17 18 19 -20 -1 2 3 4 106 0
-17 18 19 -20 -1 2 3 -4 47 0
-17 18 19 -20 -1 2 -3 4 28 0
-17 18 19 -20 -1 2 -3 -4 84 0
-17 18 -19 20 1 2 3 4 21 0
-17 18 -19 20 1 2 3 -4 21 0
-17 18 -19 20 1 2 -3 4 21 0
-17 18 -19 20 1 2 -3 -4 21 0
-17 18 -19 20 1 -2 3 4 21 0
-17 18 -19 20 1 -2 3 -4 21 0
-17 18 -19 20 1 -2 -3 4 21 0
-17 18 -19 20 1 -2 -3 -4 112 0
-17 18 -19 20 -1 2 3 4 59 0
-17 18 -19 20 -1 2 3 -4 83 0
-17 18 -19 20 -1 2 -3 4 29 0
-17 18 -19 20 -1 2 -3 -4 72 0
-17 18 -19 -20 1 2 3 4 21 0
-17 18 -19 -20 1 2 3 -4 21 0
-17 18 -19 -20 1 2 -3 4 21 0
-17 18 -19 -20 1 2 -3 -4 21 0
-17 18 -19 -20 1 -2 3 4 21 0
-17 18 -19 -20 1 -2 3 -4 21 0
-17 18 -19 -20 1 -2 -3 4 21 0
-17 18 -19 -20 1 -2 -3 -4 21 0
-17 18 -19 -20 -1 2 3 4 21 0
-17 18 -19 -20 -1 2 3 -4 21 0
-17 18 -19 -20 -1 2 -3 4 40 0
-17 18 -19 -20 -1 2 -3 -4 96 0
